&CONTROL
    calculation = "scf"
    max_seconds =  8.64000e+04
    pseudo_dir  = "C:\Users\azzam\.burai\.pseudopot"
    tprnfor     = .FALSE.
/

&SYSTEM
    a           =  1.23049e+01
    c           =  1.40000e+01
    degauss     =  1.00000e-02
    ecutrho     =  2.25000e+02
    ecutwfc     =  2.50000e+01
    ibrav       = 4
    nat         = 51
    ntyp        = 2
    occupations = "smearing"
    smearing    = "gaussian"
/

&ELECTRONS
    conv_thr         =  1.00000e-06
    electron_maxstep = 200
    mixing_beta      =  7.00000e-01
    startingpot      = "atomic"
    startingwfc      = "atomic+random"
/

K_POINTS {gamma}

ATOMIC_SPECIES
C      12.01070  C.pbe-rrkjus.UPF
O      15.99940  O.pbe-rrkjus.UPF

ATOMIC_POSITIONS {crystal}
C       0.133335   0.066668   0.499998  0 0 0
C       0.066668   0.133334   0.499998  0 0 0
C       0.133263   0.266695   0.501964
C       0.066668   0.333335   0.499998  0 0 0
C       0.132864   0.466443   0.500662
C       0.066668   0.533336   0.499998  0 0 0
C       0.133162   0.666391   0.500393
C       0.066668   0.733337   0.499998  0 0 0
C       0.133334   0.866670   0.499998  0 0 0
C       0.066667   0.933337   0.499998  0 0 0
C       0.333335   0.066668   0.499998  0 0 0
C       0.266695   0.133263   0.501964
C       0.334120   0.266353   0.509031
C       0.266353   0.334120   0.509031
C       0.329845   0.465391   0.513225
C       0.265839   0.532954   0.505102
C       0.333113   0.666891   0.504689
C       0.266856   0.733147   0.501522
C       0.333613   0.866842   0.500393
C       0.266667   0.933337   0.499998  0 0 0
C       0.533336   0.066668   0.499998  0 0 0
C       0.466442   0.132864   0.500662
C       0.532955   0.265840   0.505102
C       0.465390   0.329844   0.513225
C       0.535431   0.464573   0.532794
C       0.464573   0.535431   0.532794
C       0.534614   0.670160   0.513225
C       0.467049   0.734164   0.505102
C       0.533562   0.867140   0.500662
C       0.466668   0.933337   0.499998  0 0 0
C       0.733337   0.066668   0.499998  0 0 0
C       0.666391   0.133162   0.500393
C       0.733148   0.266857   0.501522
C       0.666891   0.333113   0.504689
C       0.734165   0.467050   0.505102
C       0.670159   0.534613   0.513225
C       0.733651   0.665884   0.509031
C       0.665884   0.733651   0.509031
C       0.733309   0.866741   0.501964
C       0.666669   0.933337   0.499998  0 0 0
C       0.933337   0.066668   0.499998  0 0 0
C       0.866670   0.133334   0.499998  0 0 0
C       0.933336   0.266667   0.499998  0 0 0
C       0.866842   0.333613   0.500393
C       0.933336   0.466668   0.499998  0 0 0
C       0.867140   0.533561   0.500662
C       0.933336   0.666669   0.499998  0 0 0
C       0.866741   0.733309   0.501964
C       0.933336   0.866670   0.499998  0 0 0
C       0.866669   0.933337   0.499998  0 0 0
O       0.500000   0.500000   0.622650


