&CONTROL
    calculation = "scf"
    max_seconds =  8.64000e+04
    pseudo_dir  = "C:\Users\azzam\.burai\.pseudopot"
    tprnfor     = .FALSE.
/

&SYSTEM
    a           =  1.23049e+01
    c           =  1.40000e+01
    degauss     =  1.00000e-02
    ecutrho     =  2.25000e+02
    ecutwfc     =  2.50000e+01
    ibrav       = 4
    nat         = 50
    ntyp        = 1
    occupations = "smearing"
    smearing    = "gaussian"
/

&ELECTRONS
    conv_thr         =  1.00000e-06
    electron_maxstep = 200
    mixing_beta      =  7.00000e-01
    startingpot      = "atomic"
    startingwfc      = "atomic+random"
/

K_POINTS {gamma}

ATOMIC_SPECIES
C      12.01070  C.pbe-rrkjus.UPF

ATOMIC_POSITIONS {crystal}
C       0.133335   0.066668   0.499998
C       0.066668   0.133334   0.499998
C       0.133334   0.266668   0.499998
C       0.066668   0.333335   0.499998
C       0.133334   0.466669   0.499998
C       0.066668   0.533336   0.499998
C       0.133334   0.666670   0.499998
C       0.066668   0.733337   0.499998
C       0.133334   0.866670   0.499998
C       0.066667   0.933337   0.499998
C       0.333335   0.066668   0.499998
C       0.266668   0.133334   0.499998
C       0.333335   0.266667   0.499998
C       0.266667   0.333335   0.499998
C       0.333335   0.466669   0.499998
C       0.266667   0.533335   0.499998
C       0.333335   0.666669   0.499998
C       0.266667   0.733336   0.499998
C       0.333334   0.866670   0.499998
C       0.266667   0.933337   0.499998
C       0.533336   0.066668   0.499998
C       0.466668   0.133334   0.499998
C       0.533336   0.266668   0.499998
C       0.466668   0.333334   0.499998
C       0.533336   0.466668   0.499998
C       0.466668   0.533336   0.499998
C       0.533336   0.666670   0.499998
C       0.466668   0.733336   0.499998
C       0.533336   0.866670   0.499998
C       0.466668   0.933337   0.499998
C       0.733337   0.066668   0.499998
C       0.666670   0.133334   0.499998
C       0.733337   0.266668   0.499998
C       0.666669   0.333335   0.499998
C       0.733337   0.466669   0.499998
C       0.666669   0.533335   0.499998
C       0.733337   0.666669   0.499998
C       0.666669   0.733337   0.499998
C       0.733336   0.866670   0.499998
C       0.666669   0.933337   0.499998
C       0.933337   0.066668   0.499998
C       0.866670   0.133334   0.499998
C       0.933336   0.266667   0.499998
C       0.866670   0.333334   0.499998
C       0.933336   0.466668   0.499998
C       0.866670   0.533335   0.499998
C       0.933336   0.666669   0.499998
C       0.866670   0.733336   0.499998
C       0.933336   0.866670   0.499998
C       0.866669   0.933337   0.499998


